p cnf 12 50 
7 -9 -5 0
8 12 10 0
2 8 -9 0
10 -12 -6 0
-12 -10 6 0
12 -5 9 0
-11 5 -8 0
1 3 9 0
10 -2 3 0
9 -1 12 0
9 2 -7 0
2 8 9 0
10 6 -11 0
-9 4 10 0
9 11 -3 0
-11 9 -5 0
-6 7 -5 0
12 10 2 0
2 8 -3 0
-3 10 -1 0
9 11 -4 0
8 3 6 0
12 11 -2 0
6 -4 7 0
10 -8 9 0
-8 4 6 0
-10 2 11 0
2 12 5 0
4 10 -5 0
2 8 9 0
10 -5 7 0
4 7 -8 0
-8 6 11 0
-11 -7 10 0
-3 6 8 0
2 4 -10 0
5 1 3 0
4 2 8 0
5 -3 -11 0
-1 -8 4 0
-7 -2 5 0
12 -8 -4 0
9 5 6 0
5 10 -2 0
10 -8 2 0
-5 -3 -11 0
-10 1 -8 0
-8 -4 -2 0
-2 10 9 0
-9 3 -10 0
